max: t0e0 - t10e0;

/* Time Constraints */
t1e0 <= t0e0;
t2e0 <= t1e0;
t11e0 <= t10e0;
t10e0 <= t6e0;
t12e0 <= t11e0;
t11e0 <= t7e0;
t13e0 <= t12e0;
t12e0 <= t8e0;
t14e0 <= t13e0;
t13e0 <= t9e0;
t7e0 <= t6e0;
t6e0 <= t3e0;
t8e0 <= t7e0;
t7e0 <= t4e0;
t9e0 <= t8e0;
t8e0 <= t5e0;
t4e0 <= t3e0;
t3e0 <= t1e0;
t5e0 <= t4e0;
t4e0 <= t2e0;

/* arrival constraints */
f0s0t10e0 - f0s0t11e0 <= x0 + 1600000.0 t10e0 - 1600000.0 t11e0;
f0s0t10e0 - f0s0t12e0 <= x0 + 1600000.0 t10e0 - 1600000.0 t12e0;
f0s0t10e0 - f0s0t13e0 <= x0 + 1600000.0 t10e0 - 1600000.0 t13e0;
f0s0t10e0 - f0s0t14e0 <= x0 + 1600000.0 t10e0 - 1600000.0 t14e0;
f0s0t11e0 - f0s0t12e0 <= x0 + 1600000.0 t11e0 - 1600000.0 t12e0;
f0s0t11e0 - f0s0t13e0 <= x0 + 1600000.0 t11e0 - 1600000.0 t13e0;
f0s0t11e0 - f0s0t14e0 <= x0 + 1600000.0 t11e0 - 1600000.0 t14e0;
f0s0t12e0 - f0s0t13e0 <= x0 + 1600000.0 t12e0 - 1600000.0 t13e0;
f0s0t12e0 - f0s0t14e0 <= x0 + 1600000.0 t12e0 - 1600000.0 t14e0;
f0s0t13e0 - f0s0t14e0 <= x0 + 1600000.0 t13e0 - 1600000.0 t14e0;
f1s1t6e0 - f1s1t7e0 <= x1 + 1600000.0 t6e0 - 1600000.0 t7e0;
f1s1t6e0 - f1s1t8e0 <= x1 + 1600000.0 t6e0 - 1600000.0 t8e0;
f1s1t6e0 - f1s1t9e0 <= x1 + 1600000.0 t6e0 - 1600000.0 t9e0;
f1s1t7e0 - f1s1t8e0 <= x1 + 1600000.0 t7e0 - 1600000.0 t8e0;
f1s1t7e0 - f1s1t9e0 <= x1 + 1600000.0 t7e0 - 1600000.0 t9e0;
f1s1t8e0 - f1s1t9e0 <= x1 + 1600000.0 t8e0 - 1600000.0 t9e0;
f2s0t10e0 - f2s0t11e0 <= x2 + 1600000.0 t10e0 - 1600000.0 t11e0;
f2s0t10e0 - f2s0t12e0 <= x2 + 1600000.0 t10e0 - 1600000.0 t12e0;
f2s0t10e0 - f2s0t13e0 <= x2 + 1600000.0 t10e0 - 1600000.0 t13e0;
f2s0t10e0 - f2s0t14e0 <= x2 + 1600000.0 t10e0 - 1600000.0 t14e0;
f2s0t11e0 - f2s0t12e0 <= x2 + 1600000.0 t11e0 - 1600000.0 t12e0;
f2s0t11e0 - f2s0t13e0 <= x2 + 1600000.0 t11e0 - 1600000.0 t13e0;
f2s0t11e0 - f2s0t14e0 <= x2 + 1600000.0 t11e0 - 1600000.0 t14e0;
f2s0t12e0 - f2s0t13e0 <= x2 + 1600000.0 t12e0 - 1600000.0 t13e0;
f2s0t12e0 - f2s0t14e0 <= x2 + 1600000.0 t12e0 - 1600000.0 t14e0;
f2s0t13e0 - f2s0t14e0 <= x2 + 1600000.0 t13e0 - 1600000.0 t14e0;
f3s2t3e0 - f3s2t4e0 <= x3 + 1600000.0 t3e0 - 1600000.0 t4e0;
f3s2t3e0 - f3s2t5e0 <= x3 + 1600000.0 t3e0 - 1600000.0 t5e0;
f3s2t4e0 - f3s2t5e0 <= x3 + 1600000.0 t4e0 - 1600000.0 t5e0;
f4s0t10e0 - f4s0t11e0 <= x4 + 1600000.0 t10e0 - 1600000.0 t11e0;
f4s0t10e0 - f4s0t12e0 <= x4 + 1600000.0 t10e0 - 1600000.0 t12e0;
f4s0t10e0 - f4s0t13e0 <= x4 + 1600000.0 t10e0 - 1600000.0 t13e0;
f4s0t10e0 - f4s0t14e0 <= x4 + 1600000.0 t10e0 - 1600000.0 t14e0;
f4s0t11e0 - f4s0t12e0 <= x4 + 1600000.0 t11e0 - 1600000.0 t12e0;
f4s0t11e0 - f4s0t13e0 <= x4 + 1600000.0 t11e0 - 1600000.0 t13e0;
f4s0t11e0 - f4s0t14e0 <= x4 + 1600000.0 t11e0 - 1600000.0 t14e0;
f4s0t12e0 - f4s0t13e0 <= x4 + 1600000.0 t12e0 - 1600000.0 t13e0;
f4s0t12e0 - f4s0t14e0 <= x4 + 1600000.0 t12e0 - 1600000.0 t14e0;
f4s0t13e0 - f4s0t14e0 <= x4 + 1600000.0 t13e0 - 1600000.0 t14e0;
f5s3t1e0 - f5s3t2e0 <= x5 + 1600000.0 t1e0 - 1600000.0 t2e0;
f6s0t10e0 - f6s0t11e0 <= x6 + 1600000.0 t10e0 - 1600000.0 t11e0;
f6s0t10e0 - f6s0t12e0 <= x6 + 1600000.0 t10e0 - 1600000.0 t12e0;
f6s0t10e0 - f6s0t13e0 <= x6 + 1600000.0 t10e0 - 1600000.0 t13e0;
f6s0t10e0 - f6s0t14e0 <= x6 + 1600000.0 t10e0 - 1600000.0 t14e0;
f6s0t11e0 - f6s0t12e0 <= x6 + 1600000.0 t11e0 - 1600000.0 t12e0;
f6s0t11e0 - f6s0t13e0 <= x6 + 1600000.0 t11e0 - 1600000.0 t13e0;
f6s0t11e0 - f6s0t14e0 <= x6 + 1600000.0 t11e0 - 1600000.0 t14e0;
f6s0t12e0 - f6s0t13e0 <= x6 + 1600000.0 t12e0 - 1600000.0 t13e0;
f6s0t12e0 - f6s0t14e0 <= x6 + 1600000.0 t12e0 - 1600000.0 t14e0;
f6s0t13e0 - f6s0t14e0 <= x6 + 1600000.0 t13e0 - 1600000.0 t14e0;
f7s0t10e0 - f7s0t11e0 <= x7 + 1600000.0 t10e0 - 1600000.0 t11e0;
f7s0t10e0 - f7s0t12e0 <= x7 + 1600000.0 t10e0 - 1600000.0 t12e0;
f7s0t10e0 - f7s0t13e0 <= x7 + 1600000.0 t10e0 - 1600000.0 t13e0;
f7s0t10e0 - f7s0t14e0 <= x7 + 1600000.0 t10e0 - 1600000.0 t14e0;
f7s0t11e0 - f7s0t12e0 <= x7 + 1600000.0 t11e0 - 1600000.0 t12e0;
f7s0t11e0 - f7s0t13e0 <= x7 + 1600000.0 t11e0 - 1600000.0 t13e0;
f7s0t11e0 - f7s0t14e0 <= x7 + 1600000.0 t11e0 - 1600000.0 t14e0;
f7s0t12e0 - f7s0t13e0 <= x7 + 1600000.0 t12e0 - 1600000.0 t13e0;
f7s0t12e0 - f7s0t14e0 <= x7 + 1600000.0 t12e0 - 1600000.0 t14e0;
f7s0t13e0 - f7s0t14e0 <= x7 + 1600000.0 t13e0 - 1600000.0 t14e0;

/* fifo constraints */
f0s0t10e0 = f0s1t6e0; 
f0s0t11e0 = f0s1t7e0; 
f0s0t12e0 = f0s1t8e0; 
f0s0t13e0 = f0s1t9e0; 
f0s1t6e0 = f0s2t3e0; 
f0s1t7e0 = f0s2t4e0; 
f0s1t8e0 = f0s2t5e0; 
f0s2t3e0 = f0s3t1e0; 
f0s2t4e0 = f0s3t2e0; 
f0s3t1e0= f0s4t0e0; 
f1s1t6e0 = f1s2t3e0; 
f1s1t7e0 = f1s2t4e0; 
f1s1t8e0 = f1s2t5e0; 
f1s2t3e0 = f1s3t1e0; 
f1s2t4e0 = f1s3t2e0; 
f1s3t1e0= f1s4t0e0; 
f2s0t10e0 = f2s1t6e0; 
f2s0t11e0 = f2s1t7e0; 
f2s0t12e0 = f2s1t8e0; 
f2s0t13e0 = f2s1t9e0; 
f3s2t3e0 = f3s3t1e0; 
f3s2t4e0 = f3s3t2e0; 
f3s3t1e0= f3s4t0e0; 
f4s0t10e0 = f4s1t6e0; 
f4s0t11e0 = f4s1t7e0; 
f4s0t12e0 = f4s1t8e0; 
f4s0t13e0 = f4s1t9e0; 
f4s1t6e0 = f4s2t3e0; 
f4s1t7e0 = f4s2t4e0; 
f4s1t8e0 = f4s2t5e0; 
f5s3t1e0= f5s4t0e0; 
f6s0t10e0 = f6s1t6e0; 
f6s0t11e0 = f6s1t7e0; 
f6s0t12e0 = f6s1t8e0; 
f6s0t13e0 = f6s1t9e0; 
f6s1t6e0 = f6s2t3e0; 
f6s1t7e0 = f6s2t4e0; 
f6s1t8e0 = f6s2t5e0; 
f6s2t3e0 = f6s3t1e0; 
f6s2t4e0 = f6s3t2e0; 
f7s0t10e0 = f7s1t6e0; 
f7s0t11e0 = f7s1t7e0; 
f7s0t12e0 = f7s1t8e0; 
f7s0t13e0 = f7s1t9e0; 
f7s1t6e0 = f7s2t3e0; 
f7s1t7e0 = f7s2t4e0; 
f7s1t8e0 = f7s2t5e0; 
f7s2t3e0 = f7s3t1e0; 
f7s2t4e0 = f7s3t2e0; 
f7s3t1e0= f7s4t0e0; 

/* Service constraints */
f0s1t9e0 - f0s0t14e0 + f2s1t9e0 - f2s0t14e0 + f4s1t9e0 - f4s0t14e0 + f6s1t9e0 - f6s0t14e0 + f7s1t9e0 - f7s0t14e0 + 10000.0 >= 10000000.0 t9e0 - 10000000.0 t14e0;
f0s1t9e0 - f0s0t14e0 + f2s1t9e0 - f2s0t14e0 + f4s1t9e0 - f4s0t14e0 + f6s1t9e0 - f6s0t14e0 + f7s1t9e0 - f7s0t14e0 + 0 >= 0;
f0s2t5e0 - f0s1t9e0 + f1s2t5e0 - f1s1t9e0 + f4s2t5e0 - f4s1t9e0 + f6s2t5e0 - f6s1t9e0 + f7s2t5e0 - f7s1t9e0 + 10000.0 >= 10000000.0 t5e0 - 10000000.0 t9e0;
f0s2t5e0 - f0s1t9e0 + f1s2t5e0 - f1s1t9e0 + f4s2t5e0 - f4s1t9e0 + f6s2t5e0 - f6s1t9e0 + f7s2t5e0 - f7s1t9e0 + 0 >= 0;
f0s3t2e0 - f0s2t5e0 + f1s3t2e0 - f1s2t5e0 + f3s3t2e0 - f3s2t5e0 + f6s3t2e0 - f6s2t5e0 + f7s3t2e0 - f7s2t5e0 + 10000.0 >= 10000000.0 t2e0 - 10000000.0 t5e0;
f0s3t2e0 - f0s2t5e0 + f1s3t2e0 - f1s2t5e0 + f3s3t2e0 - f3s2t5e0 + f6s3t2e0 - f6s2t5e0 + f7s3t2e0 - f7s2t5e0 + 0 >= 0;
f0s4t0e0 - f0s3t2e0 + f1s4t0e0 - f1s3t2e0 + f3s4t0e0 - f3s3t2e0 + f5s4t0e0 - f5s3t2e0 + f7s4t0e0 - f7s3t2e0 + 10000.0 >= 10000000.0 t0e0 - 10000000.0 t2e0;
f0s4t0e0 - f0s3t2e0 + f1s4t0e0 - f1s3t2e0 + f3s4t0e0 - f3s3t2e0 + f5s4t0e0 - f5s3t2e0 + f7s4t0e0 - f7s3t2e0 + 0 >= 0;

/* Monotony constraints */
f0s0t10e0 - f0s0t11e0 >= 0; 
f0s0t11e0 - f0s0t12e0 >= 0; 
f0s0t12e0 - f0s0t13e0 >= 0; 
f0s0t13e0 - f0s0t14e0 >= 0; 
f0s1t6e0 - f0s1t7e0 >= 0; 
f0s1t7e0 - f0s1t8e0 >= 0; 
f0s1t8e0 - f0s1t9e0 >= 0; 
f0s2t3e0 - f0s2t4e0 >= 0; 
f0s2t4e0 - f0s2t5e0 >= 0; 
f0s3t1e0 - f0s3t2e0 >= 0; 
f1s1t6e0 - f1s1t7e0 >= 0; 
f1s1t7e0 - f1s1t8e0 >= 0; 
f1s1t8e0 - f1s1t9e0 >= 0; 
f1s2t3e0 - f1s2t4e0 >= 0; 
f1s2t4e0 - f1s2t5e0 >= 0; 
f1s3t1e0 - f1s3t2e0 >= 0; 
f2s0t10e0 - f2s0t11e0 >= 0; 
f2s0t11e0 - f2s0t12e0 >= 0; 
f2s0t12e0 - f2s0t13e0 >= 0; 
f2s0t13e0 - f2s0t14e0 >= 0; 
f3s2t3e0 - f3s2t4e0 >= 0; 
f3s2t4e0 - f3s2t5e0 >= 0; 
f3s3t1e0 - f3s3t2e0 >= 0; 
f4s0t10e0 - f4s0t11e0 >= 0; 
f4s0t11e0 - f4s0t12e0 >= 0; 
f4s0t12e0 - f4s0t13e0 >= 0; 
f4s0t13e0 - f4s0t14e0 >= 0; 
f4s1t6e0 - f4s1t7e0 >= 0; 
f4s1t7e0 - f4s1t8e0 >= 0; 
f4s1t8e0 - f4s1t9e0 >= 0; 
f5s3t1e0 - f5s3t2e0 >= 0; 
f6s0t10e0 - f6s0t11e0 >= 0; 
f6s0t11e0 - f6s0t12e0 >= 0; 
f6s0t12e0 - f6s0t13e0 >= 0; 
f6s0t13e0 - f6s0t14e0 >= 0; 
f6s1t6e0 - f6s1t7e0 >= 0; 
f6s1t7e0 - f6s1t8e0 >= 0; 
f6s1t8e0 - f6s1t9e0 >= 0; 
f6s2t3e0 - f6s2t4e0 >= 0; 
f6s2t4e0 - f6s2t5e0 >= 0; 
f7s0t10e0 - f7s0t11e0 >= 0; 
f7s0t11e0 - f7s0t12e0 >= 0; 
f7s0t12e0 - f7s0t13e0 >= 0; 
f7s0t13e0 - f7s0t14e0 >= 0; 
f7s1t6e0 - f7s1t7e0 >= 0; 
f7s1t7e0 - f7s1t8e0 >= 0; 
f7s1t8e0 - f7s1t9e0 >= 0; 
f7s2t3e0 - f7s2t4e0 >= 0; 
f7s2t4e0 - f7s2t5e0 >= 0; 
f7s3t1e0 - f7s3t2e0 >= 0; 

/* Shaping constraints (e.g. maximum rate of a link)*/
0+ f0s1t6e0 - f0s1t7e0 + f4s1t6e0 - f4s1t7e0 + f6s1t6e0 - f6s1t7e0 + f7s1t6e0 - f7s1t7e0 <= 0 + 10000000.0 t6e0 - 10000000.0 t7e0;
0+ f0s1t6e0 - f0s1t8e0 + f4s1t6e0 - f4s1t8e0 + f6s1t6e0 - f6s1t8e0 + f7s1t6e0 - f7s1t8e0 <= 0 + 10000000.0 t6e0 - 10000000.0 t8e0;
0+ f0s1t6e0 - f0s1t9e0 + f4s1t6e0 - f4s1t9e0 + f6s1t6e0 - f6s1t9e0 + f7s1t6e0 - f7s1t9e0 <= 0 + 10000000.0 t6e0 - 10000000.0 t9e0;
0+ f0s1t7e0 - f0s1t8e0 + f4s1t7e0 - f4s1t8e0 + f6s1t7e0 - f6s1t8e0 + f7s1t7e0 - f7s1t8e0 <= 0 + 10000000.0 t7e0 - 10000000.0 t8e0;
0+ f0s1t7e0 - f0s1t9e0 + f4s1t7e0 - f4s1t9e0 + f6s1t7e0 - f6s1t9e0 + f7s1t7e0 - f7s1t9e0 <= 0 + 10000000.0 t7e0 - 10000000.0 t9e0;
0+ f0s1t8e0 - f0s1t9e0 + f4s1t8e0 - f4s1t9e0 + f6s1t8e0 - f6s1t9e0 + f7s1t8e0 - f7s1t9e0 <= 0 + 10000000.0 t8e0 - 10000000.0 t9e0;
0+ f0s2t3e0 - f0s2t4e0 + f1s2t3e0 - f1s2t4e0 + f6s2t3e0 - f6s2t4e0 + f7s2t3e0 - f7s2t4e0 <= 0 + 10000000.0 t3e0 - 10000000.0 t4e0;
0+ f0s2t3e0 - f0s2t5e0 + f1s2t3e0 - f1s2t5e0 + f6s2t3e0 - f6s2t5e0 + f7s2t3e0 - f7s2t5e0 <= 0 + 10000000.0 t3e0 - 10000000.0 t5e0;
0+ f0s2t4e0 - f0s2t5e0 + f1s2t4e0 - f1s2t5e0 + f6s2t4e0 - f6s2t5e0 + f7s2t4e0 - f7s2t5e0 <= 0 + 10000000.0 t4e0 - 10000000.0 t5e0;
0+ f0s3t1e0 - f0s3t2e0 + f1s3t1e0 - f1s3t2e0 + f3s3t1e0 - f3s3t2e0 + f7s3t1e0 - f7s3t2e0 <= 0 + 10000000.0 t1e0 - 10000000.0 t2e0;

/* arrival shaping constraints */
0+f2s0t10e0 - f2s0t11e0+f4s0t10e0 - f4s0t11e0+f6s0t10e0 - f6s0t11e0+f7s0t10e0 - f7s0t11e0<= 0 + 10000000.0t10e0 - 10000000.0t11e0;
0+f2s0t10e0 - f2s0t12e0+f4s0t10e0 - f4s0t12e0+f6s0t10e0 - f6s0t12e0+f7s0t10e0 - f7s0t12e0<= 0 + 10000000.0t10e0 - 10000000.0t12e0;
0+f2s0t10e0 - f2s0t13e0+f4s0t10e0 - f4s0t13e0+f6s0t10e0 - f6s0t13e0+f7s0t10e0 - f7s0t13e0<= 0 + 10000000.0t10e0 - 10000000.0t13e0;
0+f2s0t10e0 - f2s0t14e0+f4s0t10e0 - f4s0t14e0+f6s0t10e0 - f6s0t14e0+f7s0t10e0 - f7s0t14e0<= 0 + 10000000.0t10e0 - 10000000.0t14e0;
0+f2s0t11e0 - f2s0t12e0+f4s0t11e0 - f4s0t12e0+f6s0t11e0 - f6s0t12e0+f7s0t11e0 - f7s0t12e0<= 0 + 10000000.0t11e0 - 10000000.0t12e0;
0+f2s0t11e0 - f2s0t13e0+f4s0t11e0 - f4s0t13e0+f6s0t11e0 - f6s0t13e0+f7s0t11e0 - f7s0t13e0<= 0 + 10000000.0t11e0 - 10000000.0t13e0;
0+f2s0t11e0 - f2s0t14e0+f4s0t11e0 - f4s0t14e0+f6s0t11e0 - f6s0t14e0+f7s0t11e0 - f7s0t14e0<= 0 + 10000000.0t11e0 - 10000000.0t14e0;
0+f2s0t12e0 - f2s0t13e0+f4s0t12e0 - f4s0t13e0+f6s0t12e0 - f6s0t13e0+f7s0t12e0 - f7s0t13e0<= 0 + 10000000.0t12e0 - 10000000.0t13e0;
0+f2s0t12e0 - f2s0t14e0+f4s0t12e0 - f4s0t14e0+f6s0t12e0 - f6s0t14e0+f7s0t12e0 - f7s0t14e0<= 0 + 10000000.0t12e0 - 10000000.0t14e0;
0+f2s0t13e0 - f2s0t14e0+f4s0t13e0 - f4s0t14e0+f6s0t13e0 - f6s0t14e0+f7s0t13e0 - f7s0t14e0<= 0 + 10000000.0t13e0 - 10000000.0t14e0;

/* SFA delay constraints */
t0e0 - t10e0 <= 0.023303207777777776;
t0e0 - t6e0 <= 0.020642154777777772;
t6e0 - t10e0 <= 0.006964034444444444;
t7e0 - t11e0 <= 0.006964034444444444;
t8e0 - t12e0 <= 0.006964034444444444;
t9e0 - t13e0 <= 0.006964034444444444;
t0e0 - t3e0 <= 0.016527927777777774;
t3e0 - t10e0 <= 0.01071597211111111;
t4e0 - t11e0 <= 0.01071597211111111;
t5e0 - t12e0 <= 0.01071597211111111;
t0e0 - t1e0 <= 0.010126157777777778;
t1e0 - t10e0 <= 0.016107469;
t2e0 - t11e0 <= 0.016107469;
t0e0 - t10e0 <= 0.02317782322222222;

/* TFA delay constraints */
t6e0 - t10e0 <= 0.00265096;
t7e0 - t11e0 <= 0.00265096;
t8e0 - t12e0 <= 0.00265096;
t9e0 - t13e0 <= 0.00265096;
t3e0 - t6e0 <= 0.00285587;
t4e0 - t7e0 <= 0.00285587;
t5e0 - t8e0 <= 0.00285587;
t1e0 - t3e0 <= 0.00308346;
t2e0 - t4e0 <= 0.00308346;
t0e0 - t1e0 <= 0.0032957;
x0 = 1000.0;
x1 = 1000.0;
x2 = 13355.8;
x3 = 1000.0;
x4 = 9915.16;
x5 = 1000.0;
x6 = 7147.98;
x7 = 4477.76;
